2
15
25
40	36
1	1	7	16	
2	2	12	7	24	3	
3	2	17	10	26	2	
4	2	6	11	13	8	
5	1	4	10	
6	2	32	3	15	8	
7	1	14	5	
8	2	15	5	5	11	
9	2	7	10	27	4	
10	2	5	15	7	18	
11	2	28	2	14	6	
12	2	31	2	5	9	
13	1	6	13	
14	2	36	3	30	3	
15	1	25	3	
